benchmarks/bfuzz0/32157801102534362091723142231719138.smt2
(set-logic QF_FP)
(declare-const x0 (_ FloatingPoint 8 24))
(declare-const x1 (_ FloatingPoint 8 24))
(declare-const x2 (_ FloatingPoint 8 24))
(declare-const x3 (_ FloatingPoint 8 24))
(declare-const x4 (_ FloatingPoint 8 24))
(declare-const x5 (_ FloatingPoint 8 24))
(declare-const x6 (_ FloatingPoint 8 24))
(declare-const x7 (_ FloatingPoint 8 24))
(declare-const x8 (_ FloatingPoint 8 24))
(declare-const x9 (_ FloatingPoint 8 24))
(assert (fp.gt (fp.div RNE x0 x9) (fp.mul RNE x3 x2)))
(assert (fp.geq (fp.add RNE x1 x6) (fp.add RNE x7 x8)))
(assert (fp.leq (fp.add RNE x8 x3) (fp.add RNE x6 x8)))
(assert (fp.gt (fp.mul RNE x0 x0) (fp.neg x0)))
(assert (fp.geq (fp.neg x1) (fp.neg x7)))
(assert (fp.lt (fp.sub RNE x4 x2) (fp.neg x4)))
(assert (fp.eq (fp.div RNE x6 x1) (fp.div RNE x4 x1)))
(assert (fp.eq (fp.sub RNE x5 x7) (fp.add RNE x5 x7)))
(assert (fp.eq (fp.sub RNE x1 x2) (fp.div RNE x0 x8)))
(assert (fp.geq (fp.mul RNE x1 x9) (fp.neg x7)))
(assert (fp.leq (fp.add RNE x9 x0) (fp.neg x4)))
(assert (fp.lt (fp.neg x1) (fp.sub RNE x3 x3)))
(assert (fp.lt (fp.neg x8) (fp.add RNE x8 x2)))
(assert (fp.gt (fp.neg x0) (fp.sub RNE x8 x1)))
(assert (fp.lt (fp.div RNE x9 x2) (fp.add RNE x6 x1)))
(assert (fp.eq (fp.sub RNE x4 x6) (fp.div RNE x0 x2)))
(assert (fp.gt (fp.add RNE x2 x2) (fp.div RNE x7 x9)))
(assert (fp.eq (fp.sub RNE x6 x1) (fp.neg x1)))
(assert (fp.leq (fp.add RNE x3 x1) (fp.mul RNE x2 x8)))
(assert (fp.eq (fp.add RNE x2 x9) (fp.div RNE x6 x5)))
(check-sat)
