db/data/32157801102534362091723142231719138.z3.out
sat
-------------------
920.863117247
